language ESSENCE' 1.0
letting AssignmentMatrix be [[0, 0, 0, 1, 0, 0, 1, 0, 1, 0, 1, 0, 1, 0, 0, 1, 1, 0, 1, 1, 0, 1, 0], 
[0, 1, 0, 0, 1, 0, 0, 1, 0, 1, 0, 0, 1, 0, 0, 0, 0, 1, 0, 0, 1, 0, 0], 
[0, 0, 0, 0, 0, 0, 0, 0, 0, 0, 0, 0, 0, 0, 0, 0, 0, 0, 0, 0, 0, 0, 0], 
[1, 0, 1, 0, 0, 0, 0, 0, 0, 0, 0, 0, 0, 1, 0, 0, 0, 0, 0, 0, 0, 0, 1], 
[0, 0, 0, 0, 0, 0, 0, 0, 0, 0, 1, 1, 0, 0, 0, 0, 0, 0, 0, 0, 0, 0, 0]]
letting CPU be [4, 4, 4, 2, 4, 63, 2, 4, 2, 4, 8, 4, 4, 4, 63, 2, 2, 4, 2, 2, 4, 2, 4]
letting Memory be [7500, 7500, 7500, 3750, 7500, 488004, 3750, 7500, 3750, 7500, 15000, 7500, 15000, 7500, 488001, 3750, 3750, 7500, 3750, 3750, 7500, 3750, 7500]
letting Price be [210, 210, 210, 116, 210, 5, 116, 210, 116, 210, 420, 210, 350, 210, 0, 126, 116, 210, 116, 116, 210, 116, 210]
letting Storage be [2000, 2000, 2000, 2000, 2000, 12004, 2000, 2000, 2000, 2000, 2000, 2000, 4000, 2000, 12001, 2000, 2000, 2000, 2000, 2000, 2000, 2000, 2000]
letting VMType be [341, 341, 341, 433, 341, 1, 433, 341, 433, 341, 278, 341, 316, 341, 1, 477, 433, 341, 433, 433, 341, 433, 341]
